
Log started (V20.1.0.0) Tue Aug  9 10:49:51 2022


Problem 'pp.lp' read.
Read time = 0.00 sec. (0.00 ticks)
Version identifier: 20.1.0.0 | 2020-11-10 | 9bedb6d68
Tried aggregator 1 time.
No LP presolve or aggregator reductions.
Presolve time = 0.01 sec. (0.00 ticks)

Iteration log . . .
Iteration:     1   Dual infeasibility =             1.999998
Iteration:     4   Dual objective     =            27.000000

Dual simplex - Optimal:  Objective =  2.7000000000e+01
Solution time =    0.01 sec.  Iterations = 4 (3)
Deterministic time = 0.01 ticks  (0.55 ticks/sec)

